\Problem name: compact

Minimize
OBJROW: C
Subject To
ord(0,1):  - x(0,1) + x(0,2) >= 3
ord(0,2):  x(0,0) - x(0,2) >= 1
ord(1,1):  - x(1,1) + x(1,2) >= 1
ord(1,2):  x(1,0) - x(1,2) >= 9
ord(2,1):  x(2,0) - x(2,1) >= 10
ord(2,2):  - x(2,0) + x(2,2) >= 6
triangle2(0,1,0):  y(0,1,0) + y(1,0,0) = 1
triangle2(0,1,1):  y(0,1,1) + y(1,0,1) = 1
triangle2(0,1,2):  y(0,1,2) + y(1,0,2) = 1
triangle2(0,2,0):  y(0,2,0) + y(2,0,0) = 1
triangle2(0,2,1):  y(0,2,1) + y(2,0,1) = 1
triangle2(0,2,2):  y(0,2,2) + y(2,0,2) = 1
triangle2(1,2,0):  y(1,2,0) + y(2,1,0) = 1
triangle2(1,2,1):  y(1,2,1) + y(2,1,1) = 1
triangle2(1,2,2):  y(1,2,2) + y(2,1,2) = 1
MCLinV(0,1,0):  x(0,0) - v(0,1,0) - x(1,0) = 5
MCLinV(1,0,0):  - x(0,0) - v(1,0,0) + x(1,0) = 4
MCLin1(0,1,0):  u(0,1,0) >= -0
MCLin2(0,1,0):  -44 y(1,0,0) - u(0,1,0) <= -0
MCLin3(0,1,0):  29 y(1,0,0) + v(0,1,0) - u(0,1,0) <= 29
MCLin4(0,1,0):  29 y(1,0,0) - u(0,1,0) >= -0
MCLin5(0,1,0):  -44 y(1,0,0) + v(0,1,0) - u(0,1,0) >= -44
MCLin6(1,0,0):  u(1,0,0) >= -0
MCLin7(1,0,0):  -38 y(0,1,0) - u(1,0,0) <= -0
MCLin8(1,0,0):  35 y(0,1,0) + v(1,0,0) - u(1,0,0) <= 35
MCLin9(1,0,0):  35 y(0,1,0) - u(1,0,0) >= -0
MCLin10(1,0,0):  -38 y(0,1,0) + v(1,0,0) - u(1,0,0) >= -38
MCLinV(0,1,1):  x(0,1) - v(0,1,1) - x(1,1) = 1
MCLinV(1,0,1):  - x(0,1) - v(1,0,1) + x(1,1) = 3
MCLin1(0,1,1):  u(0,1,1) >= -0
MCLin2(0,1,1):  -34 y(1,0,1) - u(0,1,1) <= -0
MCLin3(0,1,1):  39 y(1,0,1) + v(0,1,1) - u(0,1,1) <= 39
MCLin4(0,1,1):  39 y(1,0,1) - u(0,1,1) >= -0
MCLin5(0,1,1):  -34 y(1,0,1) + v(0,1,1) - u(0,1,1) >= -34
MCLin6(1,0,1):  u(1,0,1) >= -0
MCLin7(1,0,1):  -43 y(0,1,1) - u(1,0,1) <= -0
MCLin8(1,0,1):  30 y(0,1,1) + v(1,0,1) - u(1,0,1) <= 30
MCLin9(1,0,1):  30 y(0,1,1) - u(1,0,1) >= -0
MCLin10(1,0,1):  -43 y(0,1,1) + v(1,0,1) - u(1,0,1) >= -43
MCLinV(0,1,2):  x(0,2) - v(0,1,2) - x(1,2) = 9
MCLinV(1,0,2):  - x(0,2) - v(1,0,2) + x(1,2) = 1
MCLin1(0,1,2):  u(0,1,2) >= -0
MCLin2(0,1,2):  -40 y(1,0,2) - u(0,1,2) <= -0
MCLin3(0,1,2):  33 y(1,0,2) + v(0,1,2) - u(0,1,2) <= 33
MCLin4(0,1,2):  33 y(1,0,2) - u(0,1,2) >= -0
MCLin5(0,1,2):  -40 y(1,0,2) + v(0,1,2) - u(0,1,2) >= -40
MCLin6(1,0,2):  u(1,0,2) >= -0
MCLin7(1,0,2):  -43 y(0,1,2) - u(1,0,2) <= -0
MCLin8(1,0,2):  30 y(0,1,2) + v(1,0,2) - u(1,0,2) <= 30
MCLin9(1,0,2):  30 y(0,1,2) - u(1,0,2) >= -0
MCLin10(1,0,2):  -43 y(0,1,2) + v(1,0,2) - u(1,0,2) >= -43
MCLinV(0,2,0):  x(0,0) - v(0,2,0) - x(2,0) = 6
MCLinV(2,0,0):  - x(0,0) - v(2,0,0) + x(2,0) = 4
MCLin1(0,2,0):  u(0,2,0) >= -0
MCLin2(0,2,0):  -35 y(2,0,0) - u(0,2,0) <= -0
MCLin3(0,2,0):  28 y(2,0,0) + v(0,2,0) - u(0,2,0) <= 28
MCLin4(0,2,0):  28 y(2,0,0) - u(0,2,0) >= -0
MCLin5(0,2,0):  -35 y(2,0,0) + v(0,2,0) - u(0,2,0) >= -35
MCLin6(2,0,0):  u(2,0,0) >= -0
MCLin7(2,0,0):  -38 y(0,2,0) - u(2,0,0) <= -0
MCLin8(2,0,0):  25 y(0,2,0) + v(2,0,0) - u(2,0,0) <= 25
MCLin9(2,0,0):  25 y(0,2,0) - u(2,0,0) >= -0
MCLin10(2,0,0):  -38 y(0,2,0) + v(2,0,0) - u(2,0,0) >= -38
MCLinV(0,2,1):  x(0,1) - v(0,2,1) - x(2,1) = 10
MCLinV(2,0,1):  - x(0,1) - v(2,0,1) + x(2,1) = 3
MCLin1(0,2,1):  u(0,2,1) >= -0
MCLin2(0,2,1):  -33 y(2,0,1) - u(0,2,1) <= -0
MCLin3(0,2,1):  30 y(2,0,1) + v(0,2,1) - u(0,2,1) <= 30
MCLin4(0,2,1):  30 y(2,0,1) - u(0,2,1) >= -0
MCLin5(0,2,1):  -33 y(2,0,1) + v(0,2,1) - u(0,2,1) >= -33
MCLin6(2,0,1):  u(2,0,1) >= -0
MCLin7(2,0,1):  -43 y(0,2,1) - u(2,0,1) <= -0
MCLin8(2,0,1):  20 y(0,2,1) + v(2,0,1) - u(2,0,1) <= 20
MCLin9(2,0,1):  20 y(0,2,1) - u(2,0,1) >= -0
MCLin10(2,0,1):  -43 y(0,2,1) + v(2,0,1) - u(2,0,1) >= -43
MCLinV(0,2,2):  x(0,2) - v(0,2,2) - x(2,2) = 9
MCLinV(2,0,2):  - x(0,2) - v(2,0,2) + x(2,2) = 1
MCLin1(0,2,2):  u(0,2,2) >= -0
MCLin2(0,2,2):  -45 y(2,0,2) - u(0,2,2) <= -0
MCLin3(0,2,2):  18 y(2,0,2) + v(0,2,2) - u(0,2,2) <= 18
MCLin4(0,2,2):  18 y(2,0,2) - u(0,2,2) >= -0
MCLin5(0,2,2):  -45 y(2,0,2) + v(0,2,2) - u(0,2,2) >= -45
MCLin6(2,0,2):  u(2,0,2) >= -0
MCLin7(2,0,2):  -28 y(0,2,2) - u(2,0,2) <= -0
MCLin8(2,0,2):  35 y(0,2,2) + v(2,0,2) - u(2,0,2) <= 35
MCLin9(2,0,2):  35 y(0,2,2) - u(2,0,2) >= -0
MCLin10(2,0,2):  -28 y(0,2,2) + v(2,0,2) - u(2,0,2) >= -28
MCLinV(1,2,0):  x(1,0) - v(1,2,0) - x(2,0) = 6
MCLinV(2,1,0):  - x(1,0) - v(2,1,0) + x(2,0) = 5
MCLin1(1,2,0):  u(1,2,0) >= -0
MCLin2(1,2,0):  -29 y(2,1,0) - u(1,2,0) <= -0
MCLin3(1,2,0):  27 y(2,1,0) + v(1,2,0) - u(1,2,0) <= 27
MCLin4(1,2,0):  27 y(2,1,0) - u(1,2,0) >= -0
MCLin5(1,2,0):  -29 y(2,1,0) + v(1,2,0) - u(1,2,0) >= -29
MCLin6(2,1,0):  u(2,1,0) >= -0
MCLin7(2,1,0):  -38 y(1,2,0) - u(2,1,0) <= -0
MCLin8(2,1,0):  18 y(1,2,0) + v(2,1,0) - u(2,1,0) <= 18
MCLin9(2,1,0):  18 y(1,2,0) - u(2,1,0) >= -0
MCLin10(2,1,0):  -38 y(1,2,0) + v(2,1,0) - u(2,1,0) >= -38
MCLinV(1,2,1):  x(1,1) - v(1,2,1) - x(2,1) = 10
MCLinV(2,1,1):  - x(1,1) - v(2,1,1) + x(2,1) = 1
MCLin1(1,2,1):  u(1,2,1) >= -0
MCLin2(1,2,1):  -33 y(2,1,1) - u(1,2,1) <= -0
MCLin3(1,2,1):  23 y(2,1,1) + v(1,2,1) - u(1,2,1) <= 23
MCLin4(1,2,1):  23 y(2,1,1) - u(1,2,1) >= -0
MCLin5(1,2,1):  -33 y(2,1,1) + v(1,2,1) - u(1,2,1) >= -33
MCLin6(2,1,1):  u(2,1,1) >= -0
MCLin7(2,1,1):  -34 y(1,2,1) - u(2,1,1) <= -0
MCLin8(2,1,1):  22 y(1,2,1) + v(2,1,1) - u(2,1,1) <= 22
MCLin9(2,1,1):  22 y(1,2,1) - u(2,1,1) >= -0
MCLin10(2,1,1):  -34 y(1,2,1) + v(2,1,1) - u(2,1,1) >= -34
MCLinV(1,2,2):  x(1,2) - v(1,2,2) - x(2,2) = 9
MCLinV(2,1,2):  - x(1,2) - v(2,1,2) + x(2,2) = 9
MCLin1(1,2,2):  u(1,2,2) >= -0
MCLin2(1,2,2):  -47 y(2,1,2) - u(1,2,2) <= -0
MCLin3(1,2,2):  9 y(2,1,2) + v(1,2,2) - u(1,2,2) <= 9
MCLin4(1,2,2):  9 y(2,1,2) - u(1,2,2) >= -0
MCLin5(1,2,2):  -47 y(2,1,2) + v(1,2,2) - u(1,2,2) >= -47
MCLin6(2,1,2):  u(2,1,2) >= -0
MCLin7(2,1,2):  -27 y(1,2,2) - u(2,1,2) <= -0
MCLin8(2,1,2):  29 y(1,2,2) + v(2,1,2) - u(2,1,2) <= 29
MCLin9(2,1,2):  29 y(1,2,2) - u(2,1,2) >= -0
MCLin10(2,1,2):  -27 y(1,2,2) + v(2,1,2) - u(2,1,2) >= -27
makespan(0):  C - x(0,0) >= 4
makespan(1):  C - x(1,0) >= 5
makespan(2):  C - x(2,2) >= 9
basic_cuts1(01,1):  3 x(0,1) + x(1,1) >= 3
basic_cuts1(02,1):  3 x(0,1) + 10 x(2,1) >= 30
basic_cuts1(12,1):  x(1,1) + 10 x(2,1) >= 10
basic_cuts1(012,1):  3 x(0,1) + x(1,1) + 10 x(2,1) >= 43
cut_clique_1(01,1):  x(0,1) + 0.33333 x(1,1) >= 1
cut_clique_1(02,1):  0.10000 x(0,1) + 0.33333 x(2,1) >= 1
cut_clique_1(12,1):  0.10000 x(1,1) + x(2,1) >= 1
cut_clique_1(012,1):  x(0,1) + 0.33333 x(1,1) >= 1
basic_cuts1(01,2):  x(0,2) + 9 x(1,2) >= 19
cut_clique_1(01,2):  0.08108 x(0,2) + 0.18919 x(1,2) >= 1
basic_cuts_reverse2(12,2):  18 C -9 x(1,2) -9 x(2,2) >= 243
basic_cuts_reverse2(012,2):  19 C - x(0,2) -9 x(1,2) -9 x(2,2) >= 262
cut_clique_5:  0.01622 x(0,0) + 0.02027 x(1,0) + 0.02432 x(2,0) + 0.00919 x(1,1) + 0.09189 x(2,1) >= 1
cut_clique_6:  0.31004 x(2,1) + 0.00437 x(0,2) + 0.01310 x(1,2) + 0.03930 x(2,2) >= 1
cut_clique_7:  0.22857 x(2,1) + 0.00952 x(1,2) + 0.04762 x(2,2) >= 1
cut_clique_8:  0.04675 x(0,1) + 0.16751 x(2,1) + 0.00191 x(0,2) + 0.00901 x(1,2) + 0.01801 x(2,2) >= 1
Bounds
 0 <= C <= 48
 4 <= x(0,0) <= 44
 0 <= y(0,1,0) <= 1
 0 <= y(1,0,0) <= 1
 -44 <= v(0,1,0) <= 29
 -38 <= v(1,0,0) <= 35
 -480 <= u(0,1,0)
 -480 <= u(1,0,0)
 0 <= y(0,2,0) <= 1
 0 <= y(2,0,0) <= 1
 -35 <= v(0,2,0) <= 28
 -38 <= v(2,0,0) <= 25
 -480 <= u(0,2,0)
 -480 <= u(2,0,0)
 10 <= x(1,0) <= 43
 0 <= y(1,2,0) <= 1
 0 <= y(2,1,0) <= 1
 -29 <= v(1,2,0) <= 27
 -38 <= v(2,1,0) <= 18
 -480 <= u(1,2,0)
 -480 <= u(2,1,0)
 10 <= x(2,0) <= 33
 0 <= x(0,1) <= 40
 0 <= y(0,1,1) <= 1
 0 <= y(1,0,1) <= 1
 -34 <= v(0,1,1) <= 39
 -43 <= v(1,0,1) <= 30
 -480 <= u(0,1,1)
 -480 <= u(1,0,1)
 0 <= y(0,2,1) <= 1
 0 <= y(2,0,1) <= 1
 -33 <= v(0,2,1) <= 30
 -43 <= v(2,0,1) <= 20
 -480 <= u(0,2,1)
 -480 <= u(2,0,1)
 0 <= x(1,1) <= 33
 0 <= y(1,2,1) <= 1
 0 <= y(2,1,1) <= 1
 -33 <= v(1,2,1) <= 23
 -34 <= v(2,1,1) <= 22
 -480 <= u(1,2,1)
 -480 <= u(2,1,1)
 0 <= x(2,1) <= 23
 3 <= x(0,2) <= 43
 0 <= y(0,1,2) <= 1
 0 <= y(1,0,2) <= 1
 -40 <= v(0,1,2) <= 33
 -43 <= v(1,0,2) <= 30
 -480 <= u(0,1,2)
 -480 <= u(1,0,2)
 0 <= y(0,2,2) <= 1
 0 <= y(2,0,2) <= 1
 -45 <= v(0,2,2) <= 18
 -28 <= v(2,0,2) <= 35
 -480 <= u(0,2,2)
 -480 <= u(2,0,2)
 1 <= x(1,2) <= 34
 0 <= y(1,2,2) <= 1
 0 <= y(2,1,2) <= 1
 -47 <= v(1,2,2) <= 9
 -27 <= v(2,1,2) <= 29
 -480 <= u(1,2,2)
 -480 <= u(2,1,2)
 16 <= x(2,2) <= 39
Integers
C x(0,0) y(0,1,0) y(1,0,0) v(0,1,0) v(1,0,0) u(0,1,0) u(1,0,0) y(0,2,0) y(2,0,0) 
v(0,2,0) v(2,0,0) u(0,2,0) u(2,0,0) x(1,0) y(1,2,0) y(2,1,0) v(1,2,0) v(2,1,0) u(1,2,0) 
u(2,1,0) x(2,0) x(0,1) y(0,1,1) y(1,0,1) v(0,1,1) v(1,0,1) u(0,1,1) u(1,0,1) y(0,2,1) 
y(2,0,1) v(0,2,1) v(2,0,1) u(0,2,1) u(2,0,1) x(1,1) y(1,2,1) y(2,1,1) v(1,2,1) v(2,1,1) 
u(1,2,1) u(2,1,1) x(2,1) x(0,2) y(0,1,2) y(1,0,2) v(0,1,2) v(1,0,2) u(0,1,2) u(1,0,2) 
y(0,2,2) y(2,0,2) v(0,2,2) v(2,0,2) u(0,2,2) u(2,0,2) x(1,2) y(1,2,2) y(2,1,2) v(1,2,2) 
v(2,1,2) u(1,2,2) u(2,1,2) x(2,2) 
End
